50

100 12 260
100 3 544
96 24 250
94 7 563
90 16 539
88 33 402
87 4 436
85 4 436
83 4 683
81 4 702
80 38 349
80 28 352
77 13 244
74 7 630
65 5 343
62 17 386
62 25 494
62 18 606
61 9 696
59 14 420
59 21 517
57 26 696
54 4 667
51 19 636
45 6 724
45 2 343
40 6 563
38 8 634
37 4 547
37 5 420
37 16 435
36 17 255
29 8 706
29 11 389
27 14 688
26 3 496
22 2 256
22 6 584
21 3 582
17 7 352
14 6 638
14 6 318
8 2 668
7 2 374
6 3 357
5 3 445
5 1 670
3 2 278
3 2 281
1 1 738
